c 
c G(n,p) graph
c graph gen seed     : 4923111
c number of vertices : 70
c max number of edges: 2415
c edge probability   : 0.600000
c data structure     : dense
c
c           Graph Stats
c number of vertices  : 70
c nonisolated vertices: 70
c number of edges     : 1449
c edge density        : 0.600000
c max degree          : 50
c avg degree          : 41.40
c min degree          : 31
p col 70 1449
e 1 2
e 1 5
e 1 6
e 1 7
e 1 8
e 1 9
e 1 11
e 1 12
e 1 14
e 1 15
e 1 18
e 1 20
e 1 22
e 1 23
e 1 24
e 1 25
e 1 27
e 1 28
e 1 31
e 1 32
e 1 34
e 1 35
e 1 38
e 1 39
e 1 40
e 1 42
e 1 43
e 1 44
e 1 45
e 1 46
e 1 48
e 1 49
e 1 51
e 1 53
e 1 54
e 1 55
e 1 56
e 1 59
e 1 60
e 1 61
e 1 62
e 1 63
e 1 64
e 1 65
e 1 66
e 1 67
e 1 68
e 1 70
e 2 3
e 2 4
e 2 5
e 2 6
e 2 7
e 2 8
e 2 9
e 2 11
e 2 16
e 2 17
e 2 20
e 2 21
e 2 25
e 2 26
e 2 29
e 2 30
e 2 32
e 2 33
e 2 34
e 2 35
e 2 36
e 2 37
e 2 38
e 2 39
e 2 41
e 2 43
e 2 45
e 2 46
e 2 48
e 2 49
e 2 51
e 2 52
e 2 53
e 2 54
e 2 55
e 2 56
e 2 59
e 2 62
e 2 63
e 2 65
e 2 66
e 2 67
e 2 69
e 2 70
e 3 5
e 3 6
e 3 7
e 3 8
e 3 10
e 3 11
e 3 12
e 3 13
e 3 16
e 3 17
e 3 18
e 3 19
e 3 20
e 3 21
e 3 22
e 3 23
e 3 25
e 3 27
e 3 28
e 3 29
e 3 30
e 3 32
e 3 33
e 3 34
e 3 36
e 3 37
e 3 38
e 3 39
e 3 45
e 3 46
e 3 49
e 3 50
e 3 51
e 3 52
e 3 54
e 3 55
e 3 57
e 3 58
e 3 59
e 3 61
e 3 62
e 3 63
e 3 64
e 3 65
e 3 66
e 3 67
e 3 68
e 3 69
e 4 5
e 4 8
e 4 10
e 4 11
e 4 12
e 4 13
e 4 14
e 4 15
e 4 16
e 4 17
e 4 19
e 4 20
e 4 21
e 4 23
e 4 26
e 4 27
e 4 33
e 4 34
e 4 36
e 4 37
e 4 39
e 4 41
e 4 46
e 4 48
e 4 49
e 4 52
e 4 55
e 4 56
e 4 57
e 4 58
e 4 60
e 4 61
e 4 63
e 4 64
e 4 65
e 4 67
e 4 69
e 5 6
e 5 8
e 5 12
e 5 13
e 5 15
e 5 16
e 5 17
e 5 19
e 5 20
e 5 24
e 5 26
e 5 27
e 5 31
e 5 34
e 5 39
e 5 40
e 5 41
e 5 42
e 5 43
e 5 45
e 5 49
e 5 50
e 5 51
e 5 53
e 5 55
e 5 58
e 5 59
e 5 60
e 5 61
e 5 63
e 5 64
e 5 65
e 5 66
e 5 67
e 5 68
e 5 69
e 5 70
e 6 7
e 6 9
e 6 10
e 6 11
e 6 13
e 6 14
e 6 15
e 6 16
e 6 17
e 6 18
e 6 19
e 6 20
e 6 23
e 6 24
e 6 25
e 6 28
e 6 29
e 6 30
e 6 33
e 6 35
e 6 36
e 6 42
e 6 44
e 6 45
e 6 46
e 6 47
e 6 48
e 6 52
e 6 53
e 6 55
e 6 58
e 6 59
e 6 60
e 6 61
e 6 62
e 6 63
e 6 64
e 6 69
e 6 70
e 7 10
e 7 11
e 7 12
e 7 13
e 7 14
e 7 15
e 7 16
e 7 17
e 7 18
e 7 19
e 7 20
e 7 23
e 7 27
e 7 28
e 7 29
e 7 30
e 7 32
e 7 33
e 7 40
e 7 41
e 7 42
e 7 43
e 7 45
e 7 48
e 7 49
e 7 52
e 7 53
e 7 56
e 7 58
e 7 60
e 7 65
e 7 67
e 7 69
e 7 70
e 8 11
e 8 12
e 8 13
e 8 15
e 8 17
e 8 18
e 8 22
e 8 23
e 8 25
e 8 29
e 8 30
e 8 33
e 8 35
e 8 39
e 8 40
e 8 41
e 8 42
e 8 44
e 8 47
e 8 51
e 8 53
e 8 54
e 8 55
e 8 57
e 8 58
e 8 59
e 8 60
e 8 61
e 8 62
e 8 63
e 8 64
e 8 65
e 8 67
e 8 68
e 9 10
e 9 13
e 9 14
e 9 17
e 9 18
e 9 19
e 9 20
e 9 21
e 9 24
e 9 26
e 9 28
e 9 29
e 9 30
e 9 31
e 9 34
e 9 35
e 9 39
e 9 40
e 9 41
e 9 42
e 9 43
e 9 44
e 9 47
e 9 50
e 9 52
e 9 53
e 9 54
e 9 58
e 9 59
e 9 60
e 9 62
e 9 63
e 9 65
e 9 66
e 9 69
e 10 13
e 10 14
e 10 15
e 10 16
e 10 21
e 10 27
e 10 28
e 10 29
e 10 32
e 10 34
e 10 35
e 10 37
e 10 40
e 10 42
e 10 43
e 10 44
e 10 45
e 10 46
e 10 47
e 10 48
e 10 49
e 10 50
e 10 51
e 10 53
e 10 55
e 10 56
e 10 57
e 10 58
e 10 59
e 10 62
e 10 63
e 10 66
e 10 67
e 11 12
e 11 14
e 11 15
e 11 16
e 11 17
e 11 18
e 11 20
e 11 23
e 11 24
e 11 25
e 11 26
e 11 27
e 11 29
e 11 33
e 11 34
e 11 36
e 11 37
e 11 38
e 11 39
e 11 40
e 11 41
e 11 42
e 11 43
e 11 45
e 11 46
e 11 47
e 11 50
e 11 51
e 11 52
e 11 54
e 11 55
e 11 60
e 11 62
e 11 65
e 11 67
e 11 68
e 12 14
e 12 15
e 12 16
e 12 19
e 12 21
e 12 22
e 12 23
e 12 25
e 12 26
e 12 27
e 12 30
e 12 31
e 12 32
e 12 33
e 12 37
e 12 38
e 12 39
e 12 41
e 12 44
e 12 47
e 12 48
e 12 49
e 12 50
e 12 51
e 12 52
e 12 53
e 12 54
e 12 55
e 12 56
e 12 57
e 12 61
e 12 63
e 12 69
e 13 14
e 13 16
e 13 17
e 13 18
e 13 20
e 13 22
e 13 23
e 13 24
e 13 27
e 13 28
e 13 29
e 13 31
e 13 32
e 13 33
e 13 34
e 13 35
e 13 36
e 13 37
e 13 38
e 13 39
e 13 41
e 13 42
e 13 43
e 13 44
e 13 45
e 13 46
e 13 48
e 13 49
e 13 52
e 13 54
e 13 55
e 13 56
e 13 58
e 13 59
e 13 60
e 13 61
e 13 63
e 13 64
e 13 65
e 13 66
e 13 67
e 13 68
e 14 15
e 14 16
e 14 18
e 14 19
e 14 20
e 14 21
e 14 22
e 14 23
e 14 25
e 14 27
e 14 28
e 14 29
e 14 30
e 14 31
e 14 32
e 14 33
e 14 35
e 14 38
e 14 39
e 14 40
e 14 41
e 14 45
e 14 47
e 14 49
e 14 50
e 14 51
e 14 52
e 14 53
e 14 57
e 14 60
e 14 63
e 14 64
e 14 65
e 14 68
e 14 69
e 14 70
e 15 16
e 15 17
e 15 20
e 15 21
e 15 22
e 15 24
e 15 25
e 15 26
e 15 27
e 15 28
e 15 29
e 15 30
e 15 32
e 15 35
e 15 36
e 15 37
e 15 38
e 15 39
e 15 40
e 15 41
e 15 42
e 15 46
e 15 49
e 15 50
e 15 51
e 15 52
e 15 53
e 15 54
e 15 58
e 15 59
e 15 61
e 15 62
e 15 65
e 15 66
e 16 17
e 16 18
e 16 19
e 16 21
e 16 23
e 16 26
e 16 28
e 16 29
e 16 31
e 16 32
e 16 35
e 16 38
e 16 39
e 16 40
e 16 44
e 16 46
e 16 47
e 16 48
e 16 49
e 16 50
e 16 51
e 16 52
e 16 54
e 16 55
e 16 57
e 16 59
e 16 60
e 16 61
e 16 62
e 16 64
e 16 66
e 16 67
e 16 68
e 16 69
e 16 70
e 17 18
e 17 21
e 17 22
e 17 23
e 17 24
e 17 25
e 17 28
e 17 29
e 17 30
e 17 32
e 17 34
e 17 35
e 17 36
e 17 37
e 17 38
e 17 39
e 17 40
e 17 41
e 17 42
e 17 43
e 17 44
e 17 46
e 17 47
e 17 48
e 17 51
e 17 56
e 17 57
e 17 59
e 17 60
e 17 62
e 17 63
e 17 65
e 17 66
e 17 67
e 17 70
e 18 22
e 18 23
e 18 24
e 18 26
e 18 27
e 18 28
e 18 30
e 18 33
e 18 35
e 18 38
e 18 40
e 18 44
e 18 45
e 18 46
e 18 47
e 18 48
e 18 49
e 18 50
e 18 53
e 18 58
e 18 60
e 18 62
e 18 63
e 18 65
e 18 66
e 18 67
e 18 68
e 18 69
e 19 21
e 19 22
e 19 23
e 19 24
e 19 25
e 19 27
e 19 29
e 19 30
e 19 31
e 19 33
e 19 34
e 19 35
e 19 37
e 19 38
e 19 39
e 19 40
e 19 41
e 19 42
e 19 43
e 19 45
e 19 46
e 19 48
e 19 51
e 19 56
e 19 57
e 19 58
e 19 59
e 19 60
e 19 61
e 19 62
e 19 63
e 19 64
e 19 67
e 19 68
e 19 69
e 20 21
e 20 22
e 20 24
e 20 27
e 20 28
e 20 30
e 20 31
e 20 32
e 20 33
e 20 34
e 20 36
e 20 38
e 20 40
e 20 41
e 20 43
e 20 46
e 20 48
e 20 50
e 20 51
e 20 52
e 20 54
e 20 55
e 20 56
e 20 58
e 20 59
e 20 60
e 20 61
e 20 62
e 20 63
e 20 68
e 20 70
e 21 24
e 21 26
e 21 31
e 21 33
e 21 34
e 21 37
e 21 39
e 21 40
e 21 41
e 21 43
e 21 44
e 21 45
e 21 49
e 21 50
e 21 51
e 21 52
e 21 53
e 21 57
e 21 58
e 21 61
e 21 62
e 21 63
e 21 64
e 21 65
e 21 67
e 21 69
e 22 24
e 22 25
e 22 28
e 22 29
e 22 30
e 22 33
e 22 36
e 22 37
e 22 38
e 22 39
e 22 40
e 22 44
e 22 48
e 22 49
e 22 50
e 22 51
e 22 53
e 22 56
e 22 57
e 22 58
e 22 60
e 22 62
e 22 66
e 22 67
e 22 68
e 23 24
e 23 26
e 23 27
e 23 28
e 23 29
e 23 30
e 23 32
e 23 34
e 23 37
e 23 38
e 23 39
e 23 40
e 23 43
e 23 44
e 23 46
e 23 48
e 23 49
e 23 53
e 23 55
e 23 58
e 23 60
e 23 62
e 23 63
e 23 64
e 23 65
e 23 66
e 23 68
e 23 70
e 24 26
e 24 27
e 24 28
e 24 29
e 24 30
e 24 31
e 24 33
e 24 34
e 24 35
e 24 38
e 24 39
e 24 40
e 24 42
e 24 43
e 24 45
e 24 46
e 24 47
e 24 48
e 24 49
e 24 50
e 24 51
e 24 53
e 24 54
e 24 56
e 24 57
e 24 59
e 24 60
e 24 61
e 24 62
e 24 63
e 24 66
e 24 69
e 25 27
e 25 28
e 25 30
e 25 32
e 25 33
e 25 34
e 25 36
e 25 37
e 25 38
e 25 40
e 25 41
e 25 42
e 25 44
e 25 45
e 25 47
e 25 48
e 25 50
e 25 54
e 25 57
e 25 58
e 25 60
e 25 61
e 25 62
e 25 64
e 25 65
e 25 66
e 25 67
e 25 68
e 25 70
e 26 28
e 26 31
e 26 32
e 26 35
e 26 36
e 26 37
e 26 38
e 26 39
e 26 40
e 26 41
e 26 43
e 26 45
e 26 47
e 26 51
e 26 52
e 26 53
e 26 55
e 26 56
e 26 59
e 26 61
e 26 62
e 26 63
e 26 65
e 26 67
e 26 68
e 26 70
e 27 30
e 27 32
e 27 33
e 27 35
e 27 36
e 27 37
e 27 38
e 27 40
e 27 41
e 27 43
e 27 45
e 27 46
e 27 49
e 27 51
e 27 52
e 27 53
e 27 55
e 27 56
e 27 57
e 27 60
e 27 64
e 27 65
e 27 66
e 27 68
e 27 69
e 28 31
e 28 32
e 28 33
e 28 34
e 28 35
e 28 37
e 28 39
e 28 42
e 28 43
e 28 46
e 28 47
e 28 49
e 28 51
e 28 52
e 28 54
e 28 55
e 28 56
e 28 57
e 28 59
e 28 60
e 28 61
e 28 63
e 28 64
e 28 65
e 28 66
e 28 67
e 28 68
e 28 69
e 28 70
e 29 30
e 29 31
e 29 34
e 29 35
e 29 36
e 29 37
e 29 38
e 29 39
e 29 41
e 29 42
e 29 44
e 29 46
e 29 48
e 29 49
e 29 50
e 29 53
e 29 54
e 29 55
e 29 56
e 29 57
e 29 58
e 29 59
e 29 61
e 29 64
e 29 67
e 29 69
e 30 31
e 30 33
e 30 34
e 30 35
e 30 37
e 30 41
e 30 42
e 30 46
e 30 47
e 30 50
e 30 52
e 30 54
e 30 55
e 30 58
e 30 59
e 30 63
e 30 64
e 30 65
e 30 66
e 30 67
e 30 68
e 30 70
e 31 33
e 31 34
e 31 36
e 31 37
e 31 42
e 31 44
e 31 45
e 31 47
e 31 51
e 31 52
e 31 54
e 31 55
e 31 56
e 31 58
e 31 59
e 31 61
e 31 64
e 31 66
e 31 67
e 31 69
e 32 33
e 32 34
e 32 35
e 32 38
e 32 40
e 32 42
e 32 43
e 32 44
e 32 45
e 32 47
e 32 48
e 32 52
e 32 55
e 32 56
e 32 57
e 32 59
e 32 60
e 32 61
e 32 62
e 32 63
e 32 64
e 32 65
e 32 68
e 32 70
e 33 35
e 33 36
e 33 37
e 33 38
e 33 39
e 33 40
e 33 41
e 33 42
e 33 45
e 33 46
e 33 47
e 33 49
e 33 50
e 33 51
e 33 52
e 33 54
e 33 56
e 33 59
e 33 60
e 33 61
e 33 65
e 33 66
e 33 67
e 33 68
e 33 69
e 34 36
e 34 39
e 34 40
e 34 41
e 34 42
e 34 43
e 34 45
e 34 46
e 34 47
e 34 48
e 34 50
e 34 52
e 34 55
e 34 58
e 34 59
e 34 61
e 34 63
e 34 66
e 34 67
e 34 68
e 34 69
e 35 36
e 35 38
e 35 39
e 35 40
e 35 41
e 35 42
e 35 44
e 35 45
e 35 47
e 35 48
e 35 49
e 35 50
e 35 52
e 35 54
e 35 55
e 35 60
e 35 61
e 35 62
e 35 65
e 35 66
e 35 68
e 35 69
e 35 70
e 36 40
e 36 41
e 36 42
e 36 43
e 36 44
e 36 46
e 36 50
e 36 52
e 36 53
e 36 54
e 36 55
e 36 56
e 36 59
e 36 60
e 36 62
e 36 68
e 36 69
e 37 38
e 37 39
e 37 40
e 37 42
e 37 43
e 37 44
e 37 45
e 37 47
e 37 49
e 37 52
e 37 53
e 37 54
e 37 56
e 37 57
e 37 58
e 37 59
e 37 61
e 37 63
e 37 64
e 37 65
e 37 66
e 37 70
e 38 41
e 38 43
e 38 44
e 38 45
e 38 46
e 38 47
e 38 48
e 38 49
e 38 58
e 38 63
e 38 64
e 38 66
e 39 43
e 39 45
e 39 47
e 39 48
e 39 50
e 39 53
e 39 54
e 39 56
e 39 57
e 39 59
e 39 60
e 39 62
e 39 63
e 39 67
e 39 69
e 40 41
e 40 42
e 40 43
e 40 44
e 40 45
e 40 46
e 40 47
e 40 48
e 40 51
e 40 52
e 40 53
e 40 54
e 40 55
e 40 57
e 40 58
e 40 59
e 40 62
e 40 63
e 40 64
e 40 65
e 40 68
e 40 70
e 41 43
e 41 45
e 41 48
e 41 49
e 41 50
e 41 52
e 41 54
e 41 55
e 41 56
e 41 57
e 41 60
e 41 61
e 41 63
e 41 65
e 41 66
e 41 68
e 41 70
e 42 43
e 42 45
e 42 47
e 42 48
e 42 49
e 42 53
e 42 54
e 42 59
e 42 61
e 42 62
e 42 64
e 42 65
e 42 67
e 42 68
e 42 69
e 42 70
e 43 44
e 43 51
e 43 53
e 43 55
e 43 60
e 43 61
e 43 62
e 43 63
e 43 65
e 43 66
e 43 67
e 43 69
e 44 47
e 44 51
e 44 53
e 44 57
e 44 58
e 44 60
e 44 69
e 44 70
e 45 46
e 45 47
e 45 49
e 45 51
e 45 53
e 45 54
e 45 55
e 45 57
e 45 61
e 45 62
e 45 63
e 45 65
e 45 68
e 45 69
e 45 70
e 46 47
e 46 53
e 46 54
e 46 55
e 46 56
e 46 63
e 46 64
e 46 65
e 46 70
e 47 48
e 47 50
e 47 51
e 47 52
e 47 54
e 47 55
e 47 60
e 47 61
e 47 62
e 47 64
e 47 66
e 47 67
e 47 68
e 47 69
e 47 70
e 48 49
e 48 50
e 48 51
e 48 55
e 48 56
e 48 57
e 48 58
e 48 63
e 48 64
e 48 67
e 48 69
e 49 50
e 49 51
e 49 54
e 49 55
e 49 59
e 49 60
e 49 61
e 49 62
e 49 63
e 49 64
e 49 65
e 49 66
e 49 67
e 49 68
e 49 69
e 50 53
e 50 54
e 50 56
e 50 57
e 50 58
e 50 59
e 50 60
e 50 61
e 50 63
e 50 64
e 50 65
e 50 66
e 50 67
e 50 68
e 51 52
e 51 53
e 51 54
e 51 55
e 51 58
e 51 59
e 51 60
e 51 62
e 51 63
e 51 64
e 51 66
e 51 67
e 51 68
e 52 53
e 52 54
e 52 55
e 52 56
e 52 57
e 52 58
e 52 61
e 52 62
e 52 64
e 52 65
e 52 67
e 52 68
e 52 69
e 52 70
e 53 55
e 53 60
e 53 61
e 53 62
e 53 63
e 53 64
e 53 66
e 53 67
e 53 68
e 53 69
e 54 55
e 54 56
e 54 57
e 54 58
e 54 59
e 54 61
e 54 64
e 54 65
e 55 57
e 55 58
e 55 60
e 55 65
e 55 66
e 55 67
e 55 68
e 55 70
e 56 57
e 56 58
e 56 61
e 56 65
e 56 66
e 56 67
e 56 68
e 56 69
e 57 58
e 57 59
e 57 60
e 57 61
e 57 63
e 57 65
e 57 68
e 57 69
e 58 59
e 58 61
e 58 62
e 58 64
e 58 67
e 58 68
e 58 69
e 58 70
e 59 62
e 59 63
e 59 65
e 59 67
e 59 69
e 60 61
e 60 64
e 60 65
e 60 67
e 60 69
e 61 62
e 61 63
e 61 64
e 61 65
e 61 66
e 61 67
e 61 68
e 61 70
e 62 63
e 62 65
e 62 67
e 62 68
e 62 69
e 62 70
e 63 66
e 63 67
e 63 69
e 63 70
e 64 65
e 64 66
e 65 67
e 65 70
e 66 67
e 66 69
e 66 70
e 67 69
e 69 70
